
Gurobi 12.0.2 (win64) logging started Thu Jun  5 10:49:03 2025

Set parameter LogFile to value "C:\Ioana\_uni\honours\slp\algorithm\Main_files\results\others\prox_tubules\Task_009_Sample003_irr_gurobi.log"
Gurobi Optimizer version 12.0.2 build v12.0.2rc0 (win64 - Windows 11.0 (26100.2))

CPU model: Intel(R) Core(TM) Ultra 5 125H, instruction set [SSE2|AVX|AVX2]
Thread count: 14 physical cores, 18 logical processors, using up to 18 threads

Non-default parameters:
TimeLimit  2200

Optimize a model with 47658 rows, 34809 columns and 147856 nonzeros
Model fingerprint: 0x871a027d
Variable types: 17415 continuous, 17394 integer (17394 binary)
Coefficient statistics:
  Matrix range     [1e-04, 8e+04]
  Objective range  [2e-04, 3e+00]
  Bounds range     [1e+00, 1e+03]
  RHS range        [1e+00, 1e+00]
Presolve removed 31189 rows and 21844 columns
Presolve time: 0.33s
Presolved: 16469 rows, 12965 columns, 54719 nonzeros
Variable types: 6414 continuous, 6551 integer (6551 binary)

Root relaxation: objective 4.057095e-03, 2474 iterations, 0.17 seconds (0.23 work units)

    Nodes    |    Current Node    |     Objective Bounds      |     Work
 Expl Unexpl |  Obj  Depth IntInf | Incumbent    BestBd   Gap | It/Node Time

     0     0    0.00406    0   28          -    0.00406      -     -    0s
H    0     0                       2.6425546    0.00406   100%     -    0s
     0     0    0.88658    0   39    2.64255    0.88658  66.4%     -    1s
     0     0    1.02131    0   34    2.64255    1.02131  61.4%     -    1s
     0     0    1.75667    0   26    2.64255    1.75667  33.5%     -    1s
     0     0    1.75757    0   32    2.64255    1.75757  33.5%     -    1s
     0     0    1.75757    0   32    2.64255    1.75757  33.5%     -    1s
     0     0    1.75869    0   34    2.64255    1.75869  33.4%     -    1s
     0     0    1.75869    0   35    2.64255    1.75869  33.4%     -    1s
     0     0    2.42738    0   29    2.64255    2.42738  8.14%     -    1s
     0     0    2.52772    0   14    2.64255    2.52772  4.35%     -    1s
     0     0    2.52778    0   13    2.64255    2.52778  4.34%     -    1s
     0     0    2.52778    0   10    2.64255    2.52778  4.34%     -    1s
     0     0    2.59868    0   18    2.64255    2.59868  1.66%     -    2s

Explored 1 nodes (6137 simplex iterations) in 2.13 seconds (2.35 work units)
Thread count was 18 (of 18 available processors)

Solution count 2: 2.64255 2.64255 

Optimal solution found (tolerance 1.00e-04)
Best objective 2.642554576080e+00, best bound 2.642554576080e+00, gap 0.0000%
